% demand
num_movements = 18;
loading_factor = [1950, 1000, 1100, 1950, 1000, 1450, 1550, 1700, 1000, 1750, 1000, 2000, 1650, 1600, 1350, 1300, 1350, 1100];
pickup_time = [0, 0, 0, 0, 0, 2, 4, 4, 4, 5, 6, 7, 7, 7, 7, 10, 10, 10];
delivery_time = [2, 3, 3, 3, 2, 3, 7, 7, 5, 6, 7, 9, 11, 11, 9, 11, 11, 11];

% transporter definition
total_capacity = 7000;
num_decks = 3;
capacity = [3000, 1000, 3000];

% ways out of decks
num_ways_out = 1;
paths_out = array3d(decks, ways_out, decks, [
% ways out of deck d1
2, 3, 0, 

% ways out of deck d2
3, 0, 0, 

% ways out of deck d3
0, 0, 0,	

]);

